c Generated map
c Size: 8 * 8, weights in range: 1 to 10, walls: True, with ratio 0.05
c dim 7 of 8
c
p sp 64 101
c graph contains 64 nodes and 101 arcs
c
a 1 9 2
a 9 1 2
a 1 2 9
a 2 1 9
a 2 10 1
a 10 2 1
a 2 3 1
a 3 2 1
a 3 11 2
a 11 3 2
a 3 4 3
a 4 3 3
a 4 12 7
a 12 4 7
a 4 5 10
a 5 4 10
a 5 13 4
a 13 5 4
a 5 6 9
a 6 5 9
a 6 14 9
a 14 6 9
a 6 7 3
a 7 6 3
a 7 15 5
a 15 7 5
a 7 8 8
a 8 7 8
a 8 16 2
a 16 8 2
a 9 17 7
a 17 9 7
a 9 10 10
a 10 9 10
a 10 18 7
a 18 10 7
a 10 11 1
a 11 10 1
a 11 19 8
a 19 11 8
a 11 12 6
a 12 11 6
a 12 20 5
a 20 12 5
a 12 13 4
a 13 12 4
a 13 21 8
a 21 13 8
a 13 14 8
a 14 13 8
a 14 22 7
a 22 14 7
a 14 15 1
a 15 14 1
a 15 23 5
a 23 15 5
a 15 16 4
a 16 15 4
a 16 24 4
a 24 16 4
a 17 25 8
a 25 17 8
a 17 18 9
a 18 17 9
a 18 26 8
a 26 18 8
a 18 19 3
a 19 18 3
a 19 27 9
a 27 19 9
a 19 20 5
a 20 19 5
a 20 28 6
a 28 20 6
a 20 21 6
a 21 20 6
a 21 29 7
a 29 21 7
a 21 22 4
a 22 21 4
a 22 30 4
a 30 22 4
a 22 23 10
a 23 22 10
a 23 31 9
a 31 23 9
a 23 24 6
a 24 23 6
a 24 32 6
a 32 24 6
a 25 33 5
a 33 25 5
a 25 26 8
a 26 25 8
a 26 34 7
a 34 26 7
a 26 27 4
a 27 26 4
a 27 28 6
a 28 27 6
a 28 29 1
a 29 28 1
a 29 37 1
a 37 29 1
a 29 30 3
a 30 29 3
a 30 38 6
a 38 30 6
a 30 31 9
a 31 30 9
a 31 39 4
a 39 31 4
a 31 32 9
a 32 31 9
a 32 40 1
a 40 32 1
a 33 41 1
a 41 33 1
a 33 34 10
a 34 33 10
a 37 45 1
a 45 37 1
a 37 38 3
a 38 37 3
a 38 46 1
a 46 38 1
a 38 39 4
a 39 38 4
a 39 47 3
a 47 39 3
a 39 40 7
a 40 39 7
a 40 48 4
a 48 40 4
a 41 49 5
a 49 41 5
a 43 51 1
a 51 43 1
a 43 44 7
a 44 43 7
a 44 52 2
a 52 44 2
a 44 45 7
a 45 44 7
a 45 53 6
a 53 45 6
a 45 46 4
a 46 45 4
a 46 54 2
a 54 46 2
a 46 47 9
a 47 46 9
a 47 55 10
a 55 47 10
a 47 48 1
a 48 47 1
a 48 56 2
a 56 48 2
a 49 57 1
a 57 49 1
a 49 50 9
a 50 49 9
a 50 58 3
a 58 50 3
a 50 51 7
a 51 50 7
a 51 59 1
a 59 51 1
a 51 52 1
a 52 51 1
a 52 60 6
a 60 52 6
a 52 53 4
a 53 52 4
a 53 61 8
a 61 53 8
a 53 54 10
a 54 53 10
a 54 62 10
a 62 54 10
a 54 55 4
a 55 54 4
a 55 63 6
a 63 55 6
a 55 56 6
a 56 55 6
a 56 64 7
a 64 56 7
a 57 58 2
a 58 57 2
a 58 59 10
a 59 58 10
a 59 60 9
a 60 59 9
a 60 61 5
a 61 60 5
a 61 62 3
a 62 61 3
a 62 63 8
a 63 62 8
a 63 64 2
a 64 63 2
